FLOW,10,10,7
4,19,3,65,1,27,2,5,0,37,7,24,6,63,8,67,9,73,5,64
3,47,1,4,4,31,2,31,0,44,7,27,9,33,6,7,5,99,8,97
2,99,0,91,4,18,3,49,1,23,7,22,8,13,9,15,6,9,5,14
0,47,1,89,3,7,4,43,2,55,7,79,5,97,8,69,9,3,6,19
3,63,0,27,2,1,1,12,4,53,5,21,6,80,9,59,8,21,7,66
2,42,0,76,4,68,1,81,3,54,9,94,5,41,6,70,7,95,8,11
0,47,4,2,3,50,2,74,1,59,6,100,5,60,7,80,9,2,8,96
3,16,2,98,1,35,4,21,0,24,6,5,7,25,8,13,5,19,9,81
0,39,1,66,4,87,3,8,2,56,9,38,5,68,8,42,6,45,7,60
4,90,1,48,2,25,3,72,0,61,5,22,8,93,7,21,9,47,6,76
